c User generated cnf file
p cnf 8 27
6 -5 8 0 
8 4 -3 0 
-7 1 1 0 
4 -5 8 0 
-8 6 1 0 
-7 7 1 0 
8 -5 8 0 
3 8 -5 0 
4 2 -1 0 
1 -3 2 0 
-8 4 3 0 
8 5 -1 0 
7 7 -3 0 
-5 8 8 0 
3 -5 4 0 
6 -5 6 0 
-1 8 1 0 
7 -5 8 0 
8 5 -7 0 
2 -8 8 0 
3 -1 2 0 
1 3 -6 0 
3 7 -6 0 
8 3 -2 0 
2 -7 8 0 
8 -6 4 0 
-4 4 2 0 
